p cnf 206 816
c p weight 7 1 0
c p weight -7 1 0
c p weight 8 0 0
c p weight -8 1 0
c p weight -5 1 0
c p weight 5 -1 0
c p weight 11 6.12323399573676603586882014729198302312846062338790031898128063403419218957424163818359375E-17 0
c p weight -11 1 0
c p weight 12 1 0
c p weight -12 1 0
c p weight -9 1 0
c p weight 9 -1 0
c p weight 15 -0.1335612396259832357348074083347455598413944244384765625 0
c p weight -15 1 0
c p weight 16 0.99104056186897349078890329110436141490936279296875 0
c p weight -16 1 0
c p weight -13 1 0
c p weight 13 -1 0
c p weight 19 6.12323399573676603586882014729198302312846062338790031898128063403419218957424163818359375E-17 0
c p weight -19 1 0
c p weight 20 1 0
c p weight -20 1 0
c p weight -17 1 0
c p weight 17 -1 0
c p weight 23 -1 0
c p weight -23 1 0
c p weight 24 3.673940397442059375002259206809000622711899723162043418511757408850826323032379150390625E-16 0
c p weight -24 1 0
c p weight -21 1 0
c p weight 21 -1 0
c p weight 27 -0.66765892231221446451172596425749361515045166015625 0
c p weight -27 1 0
c p weight 28 -0.7444673018050507184995012721628881990909576416015625 0
c p weight -28 1 0
c p weight -25 1 0
c p weight 25 -1 0
c p weight 31 1 0
c p weight -31 1 0
c p weight 32 0 0
c p weight -32 1 0
c p weight -29 1 0
c p weight 29 -1 0
c p weight 35 6.12323399573676603586882014729198302312846062338790031898128063403419218957424163818359375E-17 0
c p weight -35 1 0
c p weight 36 1 0
c p weight -36 1 0
c p weight -33 1 0
c p weight 33 -1 0
c p weight 39 -0.991511476394992374849834959604777395725250244140625 0
c p weight -39 1 0
c p weight 40 -0.130019199263118168108377403768827207386493682861328125 0
c p weight -40 1 0
c p weight -37 1 0
c p weight 37 -1 0
c p weight 43 6.12323399573676603586882014729198302312846062338790031898128063403419218957424163818359375E-17 0
c p weight -43 1 0
c p weight 44 1 0
c p weight -44 1 0
c p weight -41 1 0
c p weight 41 -1 0
c p weight 47 -1 0
c p weight -47 1 0
c p weight 48 3.673940397442059375002259206809000622711899723162043418511757408850826323032379150390625E-16 0
c p weight -48 1 0
c p weight -45 1 0
c p weight 45 -1 0
c p weight 51 -0.007515356911958460950362592711826437152922153472900390625 0
c p weight -51 1 0
c p weight 52 -0.999971759306474528017361080856062471866607666015625 0
c p weight -52 1 0
c p weight -49 1 0
c p weight 49 -1 0
c p weight -53 1 0
c p weight 53 -1 0
c p weight 58 1 0
c p weight -58 1 0
c p weight 59 0 0
c p weight -59 1 0
c p weight -56 1 0
c p weight 56 -1 0
c p weight 62 6.12323399573676603586882014729198302312846062338790031898128063403419218957424163818359375E-17 0
c p weight -62 1 0
c p weight 63 1 0
c p weight -63 1 0
c p weight -60 1 0
c p weight 60 -1 0
c p weight 66 0.99995600138413631707834383632871322333812713623046875 0
c p weight -66 1 0
c p weight 67 -0.00938058078421928620560521494553540833294391632080078125 0
c p weight -67 1 0
c p weight -64 1 0
c p weight 64 -1 0
c p weight 70 6.12323399573676603586882014729198302312846062338790031898128063403419218957424163818359375E-17 0
c p weight -70 1 0
c p weight 71 1 0
c p weight -71 1 0
c p weight -68 1 0
c p weight 68 -1 0
c p weight 74 -1 0
c p weight -74 1 0
c p weight 75 3.673940397442059375002259206809000622711899723162043418511757408850826323032379150390625E-16 0
c p weight -75 1 0
c p weight -72 1 0
c p weight 72 -1 0
c p weight 78 0.32056948953638542132438260523485951125621795654296875 0
c p weight -78 1 0
c p weight 79 0.94722500092553574280174188970704562962055206298828125 0
c p weight -79 1 0
c p weight -76 1 0
c p weight 76 -1 0
c p weight 82 1 0
c p weight -82 1 0
c p weight 83 0 0
c p weight -83 1 0
c p weight -80 1 0
c p weight 80 -1 0
c p weight 86 6.12323399573676603586882014729198302312846062338790031898128063403419218957424163818359375E-17 0
c p weight -86 1 0
c p weight 87 1 0
c p weight -87 1 0
c p weight -84 1 0
c p weight 84 -1 0
c p weight 90 -0.1576963200385754493293433142753201536834239959716796875 0
c p weight -90 1 0
c p weight 91 -0.98748765594628629127527119635487906634807586669921875 0
c p weight -91 1 0
c p weight -88 1 0
c p weight 88 -1 0
c p weight 94 6.12323399573676603586882014729198302312846062338790031898128063403419218957424163818359375E-17 0
c p weight -94 1 0
c p weight 95 1 0
c p weight -95 1 0
c p weight -92 1 0
c p weight 92 -1 0
c p weight 98 -1 0
c p weight -98 1 0
c p weight 99 3.673940397442059375002259206809000622711899723162043418511757408850826323032379150390625E-16 0
c p weight -99 1 0
c p weight -96 1 0
c p weight 96 -1 0
c p weight 102 0.0661181473607897196576033138626371510326862335205078125 0
c p weight -102 1 0
c p weight 103 -0.9978118011877674664589221720234490931034088134765625 0
c p weight -103 1 0
c p weight -100 1 0
c p weight 100 -1 0
c p weight -104 1 0
c p weight 104 -1 0
c p weight 109 1 0
c p weight -109 1 0
c p weight 110 0 0
c p weight -110 1 0
c p weight -107 1 0
c p weight 107 -1 0
c p weight 113 6.12323399573676603586882014729198302312846062338790031898128063403419218957424163818359375E-17 0
c p weight -113 1 0
c p weight 114 1 0
c p weight -114 1 0
c p weight -111 1 0
c p weight 111 -1 0
c p weight 117 -0.486641861830141631006796387737267650663852691650390625 0
c p weight -117 1 0
c p weight 118 -0.873601567257347166872705201967619359493255615234375 0
c p weight -118 1 0
c p weight -115 1 0
c p weight 115 -1 0
c p weight 121 6.12323399573676603586882014729198302312846062338790031898128063403419218957424163818359375E-17 0
c p weight -121 1 0
c p weight 122 1 0
c p weight -122 1 0
c p weight -119 1 0
c p weight 119 -1 0
c p weight 125 -1 0
c p weight -125 1 0
c p weight 126 3.673940397442059375002259206809000622711899723162043418511757408850826323032379150390625E-16 0
c p weight -126 1 0
c p weight -123 1 0
c p weight 123 -1 0
c p weight 129 -0.3950720127546685223052236324292607605457305908203125 0
c p weight -129 1 0
c p weight 130 -0.91865015361560520279482489058864302933216094970703125 0
c p weight -130 1 0
c p weight -127 1 0
c p weight 127 -1 0
c p weight 133 1 0
c p weight -133 1 0
c p weight 134 0 0
c p weight -134 1 0
c p weight -131 1 0
c p weight 131 -1 0
c p weight 137 6.12323399573676603586882014729198302312846062338790031898128063403419218957424163818359375E-17 0
c p weight -137 1 0
c p weight 138 1 0
c p weight -138 1 0
c p weight -135 1 0
c p weight 135 -1 0
c p weight 141 -0.849871234472090453238024565507657825946807861328125 0
c p weight -141 1 0
c p weight 142 -0.52699040296468868671553309468436054885387420654296875 0
c p weight -142 1 0
c p weight -139 1 0
c p weight 139 -1 0
c p weight 145 6.12323399573676603586882014729198302312846062338790031898128063403419218957424163818359375E-17 0
c p weight -145 1 0
c p weight 146 1 0
c p weight -146 1 0
c p weight -143 1 0
c p weight 143 -1 0
c p weight 149 -1 0
c p weight -149 1 0
c p weight 150 3.673940397442059375002259206809000622711899723162043418511757408850826323032379150390625E-16 0
c p weight -150 1 0
c p weight -147 1 0
c p weight 147 -1 0
c p weight 153 0.957428415249673481213221748475916683673858642578125 0
c p weight -153 1 0
c p weight 154 -0.288670798094470881789419536289642564952373504638671875 0
c p weight -154 1 0
c p weight -151 1 0
c p weight 151 -1 0
c p weight -155 1 0
c p weight 155 -1 0
c p weight 160 1 0
c p weight -160 1 0
c p weight 161 0 0
c p weight -161 1 0
c p weight -158 1 0
c p weight 158 -1 0
c p weight 164 6.12323399573676603586882014729198302312846062338790031898128063403419218957424163818359375E-17 0
c p weight -164 1 0
c p weight 165 1 0
c p weight -165 1 0
c p weight -162 1 0
c p weight 162 -1 0
c p weight 168 -0.9996923050643833352779665801790542900562286376953125 0
c p weight -168 1 0
c p weight 169 -0.0248051445280987915842363378260415629483759403228759765625 0
c p weight -169 1 0
c p weight -166 1 0
c p weight 166 -1 0
c p weight 172 6.12323399573676603586882014729198302312846062338790031898128063403419218957424163818359375E-17 0
c p weight -172 1 0
c p weight 173 1 0
c p weight -173 1 0
c p weight -170 1 0
c p weight 170 -1 0
c p weight 176 -1 0
c p weight -176 1 0
c p weight 177 3.673940397442059375002259206809000622711899723162043418511757408850826323032379150390625E-16 0
c p weight -177 1 0
c p weight -174 1 0
c p weight 174 -1 0
c p weight 180 0.383385492828331120307439050520770251750946044921875 0
c p weight -180 1 0
c p weight 181 -0.923588416930819722239220936899073421955108642578125 0
c p weight -181 1 0
c p weight -178 1 0
c p weight 178 -1 0
c p weight 184 1 0
c p weight -184 1 0
c p weight 185 0 0
c p weight -185 1 0
c p weight -182 1 0
c p weight 182 -1 0
c p weight 188 6.12323399573676603586882014729198302312846062338790031898128063403419218957424163818359375E-17 0
c p weight -188 1 0
c p weight 189 1 0
c p weight -189 1 0
c p weight -186 1 0
c p weight 186 -1 0
c p weight 192 0.99706717591611571105403299952740781009197235107421875 0
c p weight -192 1 0
c p weight 193 0.0765313446285997012186186339022242464125156402587890625 0
c p weight -193 1 0
c p weight -190 1 0
c p weight 190 -1 0
c p weight 196 6.12323399573676603586882014729198302312846062338790031898128063403419218957424163818359375E-17 0
c p weight -196 1 0
c p weight 197 1 0
c p weight -197 1 0
c p weight -194 1 0
c p weight 194 -1 0
c p weight 200 -1 0
c p weight -200 1 0
c p weight 201 3.673940397442059375002259206809000622711899723162043418511757408850826323032379150390625E-16 0
c p weight -201 1 0
c p weight -198 1 0
c p weight 198 -1 0
c p weight 204 -0.7602995870341702211447909576236270368099212646484375 0
c p weight -204 1 0
c p weight 205 -0.649572580975882996057180207571946084499359130859375 0
c p weight -205 1 0
c p weight -202 1 0
c p weight 202 -1 0
c p weight 206 0.5 0
c p weight -206 1 0
206 0
-3 0
-1 0
-5 1 0
-5 2 0
-5 -6 0
5 6 -1 -2 0
6 1 -2 0
-6 1 2 0
-7 1 0
6 -7 -2 0
-6 -7 2 0
6 7 -1 2 0
-6 7 -1 -2 0
-8 1 0
6 -8 2 0
-6 -8 -2 0
6 8 -1 -2 0
-6 8 -1 2 0
-9 10 0
-9 6 0
-9 -1 0
9 -10 1 -6 0
10 -1 6 0
-10 1 6 0
-11 6 0
10 -11 -1 0
-10 -11 1 0
10 11 1 -6 0
-10 11 -1 -6 0
-12 6 0
10 -12 1 0
-10 -12 -1 0
10 12 -1 -6 0
-10 12 1 -6 0
-13 10 0
-13 6 0
-13 -14 0
13 14 -10 -6 0
14 10 -6 0
-14 10 6 0
-15 10 0
14 -15 -6 0
-14 -15 6 0
14 15 -10 6 0
-14 15 -10 -6 0
-16 10 0
14 -16 6 0
-14 -16 -6 0
14 16 -10 -6 0
-14 16 -10 6 0
-17 18 0
-17 14 0
-17 -10 0
17 -18 10 -14 0
18 -10 14 0
-18 10 14 0
-19 14 0
18 -19 -10 0
-18 -19 10 0
18 19 10 -14 0
-18 19 -10 -14 0
-20 14 0
18 -20 10 0
-18 -20 -10 0
18 20 -10 -14 0
-18 20 10 -14 0
-21 18 0
-21 14 0
-21 -22 0
21 22 -18 -14 0
22 18 -14 0
-22 18 14 0
-23 18 0
22 -23 -14 0
-22 -23 14 0
22 23 -18 14 0
-22 23 -18 -14 0
-24 18 0
22 -24 14 0
-22 -24 -14 0
22 24 -18 -14 0
-22 24 -18 14 0
-25 18 0
-25 22 0
-25 -26 0
25 26 -18 -22 0
26 18 -22 0
-26 18 22 0
-27 18 0
26 -27 -22 0
-26 -27 22 0
26 27 -18 22 0
-26 27 -18 -22 0
-28 18 0
26 -28 22 0
-26 -28 -22 0
26 28 -18 -22 0
-26 28 -18 22 0
-29 3 0
-29 4 0
-29 -30 0
29 30 -3 -4 0
30 3 -4 0
-30 3 4 0
-31 3 0
30 -31 -4 0
-30 -31 4 0
30 31 -3 4 0
-30 31 -3 -4 0
-32 3 0
30 -32 4 0
-30 -32 -4 0
30 32 -3 -4 0
-30 32 -3 4 0
-33 34 0
-33 30 0
-33 -3 0
33 -34 3 -30 0
34 -3 30 0
-34 3 30 0
-35 30 0
34 -35 -3 0
-34 -35 3 0
34 35 3 -30 0
-34 35 -3 -30 0
-36 30 0
34 -36 3 0
-34 -36 -3 0
34 36 -3 -30 0
-34 36 3 -30 0
-37 34 0
-37 30 0
-37 -38 0
37 38 -34 -30 0
38 34 -30 0
-38 34 30 0
-39 34 0
38 -39 -30 0
-38 -39 30 0
38 39 -34 30 0
-38 39 -34 -30 0
-40 34 0
38 -40 30 0
-38 -40 -30 0
38 40 -34 -30 0
-38 40 -34 30 0
-41 42 0
-41 38 0
-41 -34 0
41 -42 34 -38 0
42 -34 38 0
-42 34 38 0
-43 38 0
42 -43 -34 0
-42 -43 34 0
42 43 34 -38 0
-42 43 -34 -38 0
-44 38 0
42 -44 34 0
-42 -44 -34 0
42 44 -34 -38 0
-42 44 34 -38 0
-45 42 0
-45 38 0
-45 -46 0
45 46 -42 -38 0
46 42 -38 0
-46 42 38 0
-47 42 0
46 -47 -38 0
-46 -47 38 0
46 47 -42 38 0
-46 47 -42 -38 0
-48 42 0
46 -48 38 0
-46 -48 -38 0
46 48 -42 -38 0
-46 48 -42 38 0
-49 42 0
-49 46 0
-49 -50 0
49 50 -42 -46 0
50 42 -46 0
-50 42 46 0
-51 42 0
50 -51 -46 0
-50 -51 46 0
50 51 -42 46 0
-50 51 -42 -46 0
-52 42 0
50 -52 46 0
-50 -52 -46 0
50 52 -42 -46 0
-50 52 -42 46 0
-53 18 0
-53 50 0
-53 42 -26 0
-53 -42 26 0
53 -18 42 26 -50 0
53 -18 -42 -26 -50 0
55 18 -42 0
55 -18 42 0
-55 18 42 0
-55 -18 -42 0
54 26 -50 0
54 -26 50 0
-54 26 50 0
-54 -26 -50 0
-56 18 0
-56 54 0
-56 -57 0
56 57 -18 -54 0
57 18 -54 0
-57 18 54 0
-58 18 0
57 -58 -54 0
-57 -58 54 0
57 58 -18 54 0
-57 58 -18 -54 0
-59 18 0
57 -59 54 0
-57 -59 -54 0
57 59 -18 -54 0
-57 59 -18 54 0
-60 61 0
-60 57 0
-60 -18 0
60 -61 18 -57 0
61 -18 57 0
-61 18 57 0
-62 57 0
61 -62 -18 0
-61 -62 18 0
61 62 18 -57 0
-61 62 -18 -57 0
-63 57 0
61 -63 18 0
-61 -63 -18 0
61 63 -18 -57 0
-61 63 18 -57 0
-64 61 0
-64 57 0
-64 -65 0
64 65 -61 -57 0
65 61 -57 0
-65 61 57 0
-66 61 0
65 -66 -57 0
-65 -66 57 0
65 66 -61 57 0
-65 66 -61 -57 0
-67 61 0
65 -67 57 0
-65 -67 -57 0
65 67 -61 -57 0
-65 67 -61 57 0
-68 69 0
-68 65 0
-68 -61 0
68 -69 61 -65 0
69 -61 65 0
-69 61 65 0
-70 65 0
69 -70 -61 0
-69 -70 61 0
69 70 61 -65 0
-69 70 -61 -65 0
-71 65 0
69 -71 61 0
-69 -71 -61 0
69 71 -61 -65 0
-69 71 61 -65 0
-72 69 0
-72 65 0
-72 -73 0
72 73 -69 -65 0
73 69 -65 0
-73 69 65 0
-74 69 0
73 -74 -65 0
-73 -74 65 0
73 74 -69 65 0
-73 74 -69 -65 0
-75 69 0
73 -75 65 0
-73 -75 -65 0
73 75 -69 -65 0
-73 75 -69 65 0
-76 69 0
-76 73 0
-76 -77 0
76 77 -69 -73 0
77 69 -73 0
-77 69 73 0
-78 69 0
77 -78 -73 0
-77 -78 73 0
77 78 -69 73 0
-77 78 -69 -73 0
-79 69 0
77 -79 73 0
-77 -79 -73 0
77 79 -69 -73 0
-77 79 -69 73 0
-80 55 0
-80 50 0
-80 -81 0
80 81 -55 -50 0
81 55 -50 0
-81 55 50 0
-82 55 0
81 -82 -50 0
-81 -82 50 0
81 82 -55 50 0
-81 82 -55 -50 0
-83 55 0
81 -83 50 0
-81 -83 -50 0
81 83 -55 -50 0
-81 83 -55 50 0
-84 85 0
-84 81 0
-84 -55 0
84 -85 55 -81 0
85 -55 81 0
-85 55 81 0
-86 81 0
85 -86 -55 0
-85 -86 55 0
85 86 55 -81 0
-85 86 -55 -81 0
-87 81 0
85 -87 55 0
-85 -87 -55 0
85 87 -55 -81 0
-85 87 55 -81 0
-88 85 0
-88 81 0
-88 -89 0
88 89 -85 -81 0
89 85 -81 0
-89 85 81 0
-90 85 0
89 -90 -81 0
-89 -90 81 0
89 90 -85 81 0
-89 90 -85 -81 0
-91 85 0
89 -91 81 0
-89 -91 -81 0
89 91 -85 -81 0
-89 91 -85 81 0
-92 93 0
-92 89 0
-92 -85 0
92 -93 85 -89 0
93 -85 89 0
-93 85 89 0
-94 89 0
93 -94 -85 0
-93 -94 85 0
93 94 85 -89 0
-93 94 -85 -89 0
-95 89 0
93 -95 85 0
-93 -95 -85 0
93 95 -85 -89 0
-93 95 85 -89 0
-96 93 0
-96 89 0
-96 -97 0
96 97 -93 -89 0
97 93 -89 0
-97 93 89 0
-98 93 0
97 -98 -89 0
-97 -98 89 0
97 98 -93 89 0
-97 98 -93 -89 0
-99 93 0
97 -99 89 0
-97 -99 -89 0
97 99 -93 -89 0
-97 99 -93 89 0
-100 93 0
-100 97 0
-100 -101 0
100 101 -93 -97 0
101 93 -97 0
-101 93 97 0
-102 93 0
101 -102 -97 0
-101 -102 97 0
101 102 -93 97 0
-101 102 -93 -97 0
-103 93 0
101 -103 97 0
-101 -103 -97 0
101 103 -93 -97 0
-101 103 -93 97 0
-104 69 0
-104 101 0
-104 93 -77 0
-104 -93 77 0
104 -69 93 77 -101 0
104 -69 -93 -77 -101 0
106 69 -93 0
106 -69 93 0
-106 69 93 0
-106 -69 -93 0
105 77 -101 0
105 -77 101 0
-105 77 101 0
-105 -77 -101 0
-107 69 0
-107 105 0
-107 -108 0
107 108 -69 -105 0
108 69 -105 0
-108 69 105 0
-109 69 0
108 -109 -105 0
-108 -109 105 0
108 109 -69 105 0
-108 109 -69 -105 0
-110 69 0
108 -110 105 0
-108 -110 -105 0
108 110 -69 -105 0
-108 110 -69 105 0
-111 112 0
-111 108 0
-111 -69 0
111 -112 69 -108 0
112 -69 108 0
-112 69 108 0
-113 108 0
112 -113 -69 0
-112 -113 69 0
112 113 69 -108 0
-112 113 -69 -108 0
-114 108 0
112 -114 69 0
-112 -114 -69 0
112 114 -69 -108 0
-112 114 69 -108 0
-115 112 0
-115 108 0
-115 -116 0
115 116 -112 -108 0
116 112 -108 0
-116 112 108 0
-117 112 0
116 -117 -108 0
-116 -117 108 0
116 117 -112 108 0
-116 117 -112 -108 0
-118 112 0
116 -118 108 0
-116 -118 -108 0
116 118 -112 -108 0
-116 118 -112 108 0
-119 120 0
-119 116 0
-119 -112 0
119 -120 112 -116 0
120 -112 116 0
-120 112 116 0
-121 116 0
120 -121 -112 0
-120 -121 112 0
120 121 112 -116 0
-120 121 -112 -116 0
-122 116 0
120 -122 112 0
-120 -122 -112 0
120 122 -112 -116 0
-120 122 112 -116 0
-123 120 0
-123 116 0
-123 -124 0
123 124 -120 -116 0
124 120 -116 0
-124 120 116 0
-125 120 0
124 -125 -116 0
-124 -125 116 0
124 125 -120 116 0
-124 125 -120 -116 0
-126 120 0
124 -126 116 0
-124 -126 -116 0
124 126 -120 -116 0
-124 126 -120 116 0
-127 120 0
-127 124 0
-127 -128 0
127 128 -120 -124 0
128 120 -124 0
-128 120 124 0
-129 120 0
128 -129 -124 0
-128 -129 124 0
128 129 -120 124 0
-128 129 -120 -124 0
-130 120 0
128 -130 124 0
-128 -130 -124 0
128 130 -120 -124 0
-128 130 -120 124 0
-131 106 0
-131 101 0
-131 -132 0
131 132 -106 -101 0
132 106 -101 0
-132 106 101 0
-133 106 0
132 -133 -101 0
-132 -133 101 0
132 133 -106 101 0
-132 133 -106 -101 0
-134 106 0
132 -134 101 0
-132 -134 -101 0
132 134 -106 -101 0
-132 134 -106 101 0
-135 136 0
-135 132 0
-135 -106 0
135 -136 106 -132 0
136 -106 132 0
-136 106 132 0
-137 132 0
136 -137 -106 0
-136 -137 106 0
136 137 106 -132 0
-136 137 -106 -132 0
-138 132 0
136 -138 106 0
-136 -138 -106 0
136 138 -106 -132 0
-136 138 106 -132 0
-139 136 0
-139 132 0
-139 -140 0
139 140 -136 -132 0
140 136 -132 0
-140 136 132 0
-141 136 0
140 -141 -132 0
-140 -141 132 0
140 141 -136 132 0
-140 141 -136 -132 0
-142 136 0
140 -142 132 0
-140 -142 -132 0
140 142 -136 -132 0
-140 142 -136 132 0
-143 144 0
-143 140 0
-143 -136 0
143 -144 136 -140 0
144 -136 140 0
-144 136 140 0
-145 140 0
144 -145 -136 0
-144 -145 136 0
144 145 136 -140 0
-144 145 -136 -140 0
-146 140 0
144 -146 136 0
-144 -146 -136 0
144 146 -136 -140 0
-144 146 136 -140 0
-147 144 0
-147 140 0
-147 -148 0
147 148 -144 -140 0
148 144 -140 0
-148 144 140 0
-149 144 0
148 -149 -140 0
-148 -149 140 0
148 149 -144 140 0
-148 149 -144 -140 0
-150 144 0
148 -150 140 0
-148 -150 -140 0
148 150 -144 -140 0
-148 150 -144 140 0
-151 144 0
-151 148 0
-151 -152 0
151 152 -144 -148 0
152 144 -148 0
-152 144 148 0
-153 144 0
152 -153 -148 0
-152 -153 148 0
152 153 -144 148 0
-152 153 -144 -148 0
-154 144 0
152 -154 148 0
-152 -154 -148 0
152 154 -144 -148 0
-152 154 -144 148 0
-155 120 0
-155 152 0
-155 144 -128 0
-155 -144 128 0
155 -120 144 128 -152 0
155 -120 -144 -128 -152 0
157 120 -144 0
157 -120 144 0
-157 120 144 0
-157 -120 -144 0
156 128 -152 0
156 -128 152 0
-156 128 152 0
-156 -128 -152 0
-158 120 0
-158 156 0
-158 -159 0
158 159 -120 -156 0
159 120 -156 0
-159 120 156 0
-160 120 0
159 -160 -156 0
-159 -160 156 0
159 160 -120 156 0
-159 160 -120 -156 0
-161 120 0
159 -161 156 0
-159 -161 -156 0
159 161 -120 -156 0
-159 161 -120 156 0
-162 163 0
-162 159 0
-162 -120 0
162 -163 120 -159 0
163 -120 159 0
-163 120 159 0
-164 159 0
163 -164 -120 0
-163 -164 120 0
163 164 120 -159 0
-163 164 -120 -159 0
-165 159 0
163 -165 120 0
-163 -165 -120 0
163 165 -120 -159 0
-163 165 120 -159 0
-166 163 0
-166 159 0
-166 -167 0
166 167 -163 -159 0
167 163 -159 0
-167 163 159 0
-168 163 0
167 -168 -159 0
-167 -168 159 0
167 168 -163 159 0
-167 168 -163 -159 0
-169 163 0
167 -169 159 0
-167 -169 -159 0
167 169 -163 -159 0
-167 169 -163 159 0
-170 171 0
-170 167 0
-170 -163 0
170 -171 163 -167 0
171 -163 167 0
-171 163 167 0
-172 167 0
171 -172 -163 0
-171 -172 163 0
171 172 163 -167 0
-171 172 -163 -167 0
-173 167 0
171 -173 163 0
-171 -173 -163 0
171 173 -163 -167 0
-171 173 163 -167 0
-174 171 0
-174 167 0
-174 -175 0
174 175 -171 -167 0
175 171 -167 0
-175 171 167 0
-176 171 0
175 -176 -167 0
-175 -176 167 0
175 176 -171 167 0
-175 176 -171 -167 0
-177 171 0
175 -177 167 0
-175 -177 -167 0
175 177 -171 -167 0
-175 177 -171 167 0
-178 171 0
-178 175 0
-178 -179 0
178 179 -171 -175 0
179 171 -175 0
-179 171 175 0
-180 171 0
179 -180 -175 0
-179 -180 175 0
179 180 -171 175 0
-179 180 -171 -175 0
-181 171 0
179 -181 175 0
-179 -181 -175 0
179 181 -171 -175 0
-179 181 -171 175 0
-182 157 0
-182 152 0
-182 -183 0
182 183 -157 -152 0
183 157 -152 0
-183 157 152 0
-184 157 0
183 -184 -152 0
-183 -184 152 0
183 184 -157 152 0
-183 184 -157 -152 0
-185 157 0
183 -185 152 0
-183 -185 -152 0
183 185 -157 -152 0
-183 185 -157 152 0
-186 187 0
-186 183 0
-186 -157 0
186 -187 157 -183 0
187 -157 183 0
-187 157 183 0
-188 183 0
187 -188 -157 0
-187 -188 157 0
187 188 157 -183 0
-187 188 -157 -183 0
-189 183 0
187 -189 157 0
-187 -189 -157 0
187 189 -157 -183 0
-187 189 157 -183 0
-190 187 0
-190 183 0
-190 -191 0
190 191 -187 -183 0
191 187 -183 0
-191 187 183 0
-192 187 0
191 -192 -183 0
-191 -192 183 0
191 192 -187 183 0
-191 192 -187 -183 0
-193 187 0
191 -193 183 0
-191 -193 -183 0
191 193 -187 -183 0
-191 193 -187 183 0
-194 195 0
-194 191 0
-194 -187 0
194 -195 187 -191 0
195 -187 191 0
-195 187 191 0
-196 191 0
195 -196 -187 0
-195 -196 187 0
195 196 187 -191 0
-195 196 -187 -191 0
-197 191 0
195 -197 187 0
-195 -197 -187 0
195 197 -187 -191 0
-195 197 187 -191 0
-198 195 0
-198 191 0
-198 -199 0
198 199 -195 -191 0
199 195 -191 0
-199 195 191 0
-200 195 0
199 -200 -191 0
-199 -200 191 0
199 200 -195 191 0
-199 200 -195 -191 0
-201 195 0
199 -201 191 0
-199 -201 -191 0
199 201 -195 -191 0
-199 201 -195 191 0
-202 195 0
-202 199 0
-202 -203 0
202 203 -195 -199 0
203 195 -199 0
-203 195 199 0
-204 195 0
203 -204 -199 0
-203 -204 199 0
203 204 -195 199 0
-203 204 -195 -199 0
-205 195 0
203 -205 199 0
-203 -205 -199 0
203 205 -195 -199 0
-203 205 -195 199 0
-171 0
-195 0
-203 0
